30
0   76   78
1   76   77
2   38   39
3   39   39
4   21   20
5   19   19
6   11   10
7   11   11
8   7   5
9   7   6
10   4   5
11   3   5
12   2   3
13   2   2
14   1   3
15   3   1
16   2   3
17   1   2
18   3   1
19   3   1
20   2   2
21   3   1
22   2   1
23   3   1
24   2   2
25   1   2
26   3   3
27   1   1
28   3   3
29   2   1
150
